NAME : morphed22-2-10
COMMENT : Generated using the function morphInstances from the R-package netgen (Bossek,2015) - Number of clusters: 2 Alpha: 0.5
TYPE : TSP
DIMENSION : 22
EDGE_WEIGHT_TYPE : EUC_2D
NODE_COORD_SECTION
1 43.709140224 70.0342203008
2 50.6962477247 18.8461469263
3 55.7883132761 22.742826245
4 70.9699341617 43.1683784505
5 14.4801052722 74.3428399806
6 38.3882431184 17.650307934
7 24.7727277383 73.3213421171
8 26.9376200978 42.4170660318
9 64.8079591749 32.6872234327
10 53.0707901618 5.0771481744
11 66.4844151258 12.2617535674
12 46.9945172659 76.7268284995
13 11.2850583036 45.9010659549
14 46.6416586343 65.5489991942
15 31.7324775378 74.4639310558
16 36.2772202359 73.7958484276
17 14.987674638 61.3495280871
18 26.370987711 49.8569062197
19 52.4223030242 16.9722306327
20 79.1383540627 12.422642521
21 82.3094685761 1.9460400141
22 66.2461318021 44.6446194827
EOF
